NAME : covtype.pruned_local_16.-4853984.tour
COMMENT : Length = -4853984
TYPE : TOUR
DIMENSION : 54
TOUR_SECTION
53
51
49
47
45
43
10
13
2
8
3
7
9
4
5
1
11
6
37
12
36
34
32
30
28
26
24
14
20
18
16
15
17
19
21
22
23
25
27
29
31
33
35
38
39
40
41
42
44
46
48
50
52
54
-1
EOF
